100
-52 8 42 62 0 72 0 40 0 0 0 -82 0 -18 0 74 -64 72 0 4 -36 56 0 22 0 -40 0 0 26 0 14 54 -48 -20 -24 0 0 94 0 0 -90 0 0 52 0 0 0 4 0 36 0 10 -78 64 0 96 0 0 0 0 0 76 0 -2 74 92 0 0 18 -84 44 -68 -22 32 0 42 74 0 0 0 0 40 -14 -80 18 0 34 -72 2 0 0 -96 -62 78 0 68 0 -98 30 0
0 0 0 0 -9 0 25 0 -59 -67 -1 0 -79 0 -7 0 0 0 -55 0 0 0 55 0 -77 0 17 17 0 75 0 0 0 0 0 57 -97 0 -13 -9 0 -63 -15 0 -79 21 29 0 -57 0 13 0 0 0 -59 0 -33 -47 0 51 -67 0 -27 0 0 0 -69 -91 0 0 0 0 0 0 -89 0 0 -63 -7 -21 -81 0 0 0 0 17 0 0 0 83 -85 0 0 0 27 0 -13 0 0 -7
